c instancia_09  vars=15  clausulas=25  k=2
p cnf 15 25
-12 14 0
-6 14 0
-12 -2 0
-3 -2 0
-3 -9 0
2 7 0
13 -11 0
5 -1 0
-15 12 0
-8 -7 0
9 13 0
11 -6 0
-14 -5 0
12 6 0
9 -1 0
7 -14 0
15 -4 0
5 -11 0
-11 9 0
8 -11 0
-6 3 0
-15 2 0
1 10 0
14 -2 0
8 11 0
